(set-logic ALL)
(declare-fun i4 () Int)
(declare-fun i1 () Int)
(declare-fun i3 () Int)
(declare-fun it962 () Int)
(declare-fun it963 () Int)
(declare-fun i2 () Int)
(declare-fun it964 () Int)
(declare-fun it965 () Int)
(declare-fun it966 () Int)
(declare-fun it967 () Int)
(declare-fun it129 () Int)
(declare-fun it972 () Int)
(declare-fun it973 () Int)
(declare-fun it974 () Int)
(declare-fun it975 () Int)
(declare-fun it976 () Int)
(declare-fun it977 () Int)
(declare-fun it999 () Int)
(declare-fun it1000 () Int)
(declare-fun it1001 () Int)
(declare-fun it1002 () Int)
(declare-fun it1003 () Int)
(declare-fun it1004 () Int)
(declare-fun it88 () Int)
(declare-fun it1018 () Int)
(declare-fun it1019 () Int)
(declare-fun it1020 () Int)
(declare-fun it1021 () Int)
(declare-fun it1022 () Int)
(declare-fun it1023 () Int)
(declare-fun it19 () Int)
(declare-fun it1069 () Int)
(declare-fun it1070 () Int)
(declare-fun it1071 () Int)
(declare-fun it1072 () Int)
(declare-fun it1073 () Int)
(declare-fun it1074 () Int)
(declare-fun it716 () Int)
(declare-fun it706 () Int)
(declare-fun it1162 () Int)
(declare-fun it540 () Int)
(assert (and (>= (+ i3 (- 2)) 0) (= (+ i1 (- 1)) 0) (>= (+ i4 (- 2)) 0)))
(assert (= (+ it962 (- 3)) 0))
(assert (= (+ (* i2 (- 1)) it963 (- 2)) 0))
(assert (= (+ (* i3 (- 1)) it964 1) 0))
(assert (= (+ it965 (* i4 (- 1))) 0))
(assert (= (+ it966 (* i3 (- 1)) 1) 0))
(assert (= (+ (* i3 (- 2)) it967 2) 0))
(assert (let ((a!1 (+ (+ 0 it965)
              (* (exp 2 it129) (+ 0 (- 1)))
              (* (+ 0 it967) (exp 2 (+ it129 (- 1))) (+ 0 (- 1)))))
      (a!2 (>= (+ (+ it965 (* it967 (- 1))) (- 1)) 0)))
  (and (>= (+ a!1 (+ 0 2)) (+ 0 0))
       (>= (+ it967 (- 1)) 0)
       (>= (+ it965 (* it967 (- 1))) 0)
       a!2
       (>= (+ it962 (- 3)) 0)
       (>= (+ a!1 (+ 0 1)) (+ 0 0))
       (>= (+ it129 (- 1)) 0)
       (>= (+ (* it962 (- 1)) 3) 0))))
(assert (= (+ (* it962 (- 1)) it972) 0))
(assert (= (+ (* it129 (- 1)) (* it963 (- 1)) it973) 0))
(assert (= (+ (* it964 (- 1)) it974) 0))
(assert (= (+ (* it965 (- 1)) it975) 0))
(assert (let ((a!1 (+ (* (exp 2 it129) (+ 0 (- 1)))
              (+ 0 it976)
              (* (+ 0 it967) (exp 2 (+ it129 (- 1))) (+ 0 (- 1)))
              (+ 0 1))))
  (= a!1 (+ 0 0))))
(assert (let ((a!1 (+ (* (exp 2 (+ it129 1)) (+ 0 (- 1)))
              (* (exp 2 it129) (+ 0 it967) (+ 0 (- 1)))
              (+ 0 it977)
              (+ 0 2))))
  (= a!1 (+ 0 0))))
(assert (let ((a!1 (>= (+ (+ it975 (* it977 (- 1))) (- 1)) 0)))
  (and (>= (+ it974 (- 1)) 0)
       (>= (+ it975 (* it977 (- 1))) 0)
       (>= (+ it974 (- 2)) 0)
       a!1
       (>= 0 0)
       (>= (+ it975 (- 4)) 0)
       (>= (+ (* it972 (- 1)) 3) 0)
       (>= (+ it975 (- 2)) 0)
       (>= (+ it972 (- 3)) 0)
       (<= (+ (* it974 2) (* it977 (- 1)) (- 2)) 0))))
(assert (= (+ it999 (* it972 (- 1))) 0))
(assert (= (+ it1000 (* it973 (- 1)) (* it974 (- 3)) 3) 0))
(assert (= (+ it1001 (- 1)) 0))
(assert (= (+ it1002 (* it975 (- 1))) 0))
(assert (= (+ it1003 (- 1)) 0))
(assert (= (+ it1004 (- 2)) 0))
(assert (let ((a!1 (>= (+ (+ it1002 (* it88 (- 1))) (* it1001 (- 2))) 0))
      (a!2 (>= (+ (+ it1002 (* it1004 (- 1))) (- 1)) 0))
      (a!3 (>= (+ (+ it1002 (* it88 (- 1))) (- 2)) 0))
      (a!4 (+ (+ (+ it1002 (* it88 (- 1))) (* it1001 (- 2))) 1)))
  (and (>= (+ (* it1001 (- 1)) 1) 0)
       a!1
       (>= (+ (* it999 (- 1)) 3) 0)
       (>= (+ it1002 (- 2)) 0)
       a!2
       (>= (+ it1002 (* it1004 (- 1))) 0)
       (>= (+ it1002 (- 3)) 0)
       (>= (+ it88 (- 1)) 0)
       a!3
       (>= (+ it999 (- 3)) 0)
       (>= a!4 0)
       (>= (+ it1001 (- 1)) 0))))
(assert (= (+ it1018 (* it999 (- 1))) 0))
(assert (= (+ (* it88 (- 3)) it1019 (* it1000 (- 1))) 0))
(assert (= (+ it1020 (* it1001 (- 1))) 0))
(assert (= (+ it1021 (* it1002 (- 1)) it88) 0))
(assert (= (+ it1022 (* it1001 (- 1))) 0))
(assert (= (+ (* it1001 (- 2)) it1023) 0))
(assert (let ((a!1 (>= (+ (+ it1021 (* it1023 (- 1))) (- 1)) 0))
      (a!2 (>= (+ (+ it1021 (* it19 (- 1))) (- 2)) 0))
      (a!3 (+ (+ (+ it1021 (* it19 (- 1))) (* it1020 (- 2))) 1))
      (a!4 (>= (+ (+ it1021 (* it19 (- 1))) (* it1020 (- 2))) 0)))
  (and (>= (+ it1020 (- 1)) 0)
       (>= (+ it1021 (- 3)) 0)
       a!1
       (>= (+ (* it1018 (- 1)) 3) 0)
       (>= (+ it1018 (- 3)) 0)
       (>= (+ it19 (- 1)) 0)
       (>= (+ it1021 (- 2)) 0)
       a!2
       (>= (+ (* it1020 (- 1)) 1) 0)
       (>= (+ it1021 (* it1023 (- 1))) 0)
       (>= a!3 0)
       a!4)))
(assert (= (+ (* it1018 (- 1)) it1069) 0))
(assert (= (+ (* it19 (- 3)) (* it1019 (- 1)) it1070) 0))
(assert (= (+ it1071 (* it1020 (- 1))) 0))
(assert (= (+ (* it1021 (- 1)) it19 it1072) 0))
(assert (= (+ (* it1020 (- 1)) it1073) 0))
(assert (= (+ it1074 (* it1020 (- 2))) 0))
(assert (let ((a!1 (* (+ it1162 (- 1)) (+ (* it540 it716) (* it706 it716) 1)))
      (a!3 (+ (* it1071 (- 2)) (* it540 it716) it1072 (* it706 it716)))
      (a!6 (+ (* (+ it716 (- 1)) it540 (- 1)) (* it706 (+ it716 (- 1)) (- 1))))
      (a!10 (+ (* (+ it716 (- 1)) it540 (- 1))
               (* it1162 (- 1))
               (* it706 (+ it716 (- 1)) (- 1))))
      (a!16 (>= (+ (+ (* it540 it716) it1072 (* it706 it716)) (- 2)) 0))
      (a!18 (+ (+ (* it540 it716) it1072 (* it706 it716)) (* it540 (- 1))))
      (a!20 (>= (+ (+ (* it540 it716) it1072 (* it706 it716)) (- 1)) 0))
      (a!23 (>= (+ (* (* it540 it716) (- 1)) (* (* it706 it716) (- 1)) (- 2)) 0))
      (a!28 (>= (+ (+ (* it1074 (- 1)) it1072) (- 1)) 0)))
(let ((a!2 (+ (+ (* it1162 (- 1)) (* it1071 (- 2)) a!1)
              (* it540 it716)
              (* (+ it1162 (- 1)) it540 it716 (- 1))
              it1072
              (* it706 it716)
              (* (+ it1162 (- 1)) it706 it716 (- 1))))
      (a!4 (>= (+ (+ a!3 (* it540 (- 1))) (- 1)) 0))
      (a!5 (+ (+ (* it1162 (- 1)) a!1)
              (* it540 it716)
              (* (+ it1162 (- 1)) it540 it716 (- 1))
              it1072
              (* it706 it716)
              (* (+ it1162 (- 1)) it706 it716 (- 1))))
      (a!7 (>= (+ (+ a!6 (* it540 it716) it1072 (* it706 it716)) (- 2)) 0))
      (a!9 (+ (+ a!6 (* it1071 (- 2))) (* it540 it716) it1072 (* it706 it716)))
      (a!11 (+ (+ a!10 (* it1071 (- 2)) a!1)
               (* it540 it716)
               (* (+ it1162 (- 1)) it540 it716 (- 1))
               it1072
               (* it706 it716)
               (* (+ it1162 (- 1)) it706 it716 (- 1))))
      (a!12 (>= (+ (+ a!10 a!1)
                   (* it706 (- 1))
                   (* it540 it716)
                   (* (+ it1162 (- 1)) it540 it716 (- 1))
                   it1072
                   (* it706 it716)
                   (* (+ it1162 (- 1)) it706 it716 (- 1))
                   (* it540 (- 1)))
                0))
      (a!13 (+ (+ a!6 (* it540 it716) it1072 (* it706 it716)) (* it540 (- 1))))
      (a!14 (+ (+ a!10 a!1)
               (* it540 it716)
               (* (+ it1162 (- 1)) it540 it716 (- 1))
               it1072
               (* it706 it716)
               (* (+ it1162 (- 1)) it706 it716 (- 1))))
      (a!17 (+ (+ (* it1162 (- 1)) a!1)
               (* (+ it1162 (- 1)) it540 it716 (- 1))
               it1072
               (* (+ it1162 (- 1)) it706 it716 (- 1))))
      (a!21 (>= (+ (+ a!6 (* it1071 (- 2)))
                   (* it706 (- 1))
                   (* it540 it716)
                   it1072
                   (* it706 it716)
                   (* it540 (- 1)))
                0))
      (a!24 (>= (+ (+ a!10 (* it1071 (- 2)) a!1)
                   (* it706 (- 1))
                   (* it540 it716)
                   (* (+ it1162 (- 1)) it540 it716 (- 1))
                   it1072
                   (* it706 it716)
                   (* (+ it1162 (- 1)) it706 it716 (- 1))
                   (* it540 (- 1))
                   1)
                0))
      (a!25 (>= (+ (+ (* it1162 (- 1)) a!1)
                   (* it706 (- 1))
                   (* it540 it716)
                   (* (+ it1162 (- 1)) it540 it716 (- 1))
                   it1072
                   (* it706 it716)
                   (* (+ it1162 (- 1)) it706 it716 (- 1))
                   (* it540 (- 1)))
                0))
      (a!27 (>= (+ (+ (* it1162 (- 1)) (* it1071 (- 2)) a!1)
                   (* it706 (- 1))
                   (* it540 it716)
                   (* (+ it1162 (- 1)) it540 it716 (- 1))
                   it1072
                   (* it706 it716)
                   (* (+ it1162 (- 1)) it706 it716 (- 1))
                   (* it540 (- 1))
                   1)
                0)))
(let ((a!8 (>= (+ (+ a!2 (* it540 (- 1))) 1) 0))
      (a!15 (>= (+ (+ a!14 (* it540 (- 1))) (- 1)) 0))
      (a!19 (>= (+ (+ a!9 (* it540 (- 1))) (- 1)) 0))
      (a!22 (>= (+ (+ a!5 (* it540 (- 1))) (- 1)) 0))
      (a!26 (>= (+ (+ a!11 (* it540 (- 1))) 1) 0)))
  (and (= (+ (* it1069 (- 1)) 3) 0)
       (>= (+ a!2 3) 0)
       (>= (+ it540 (- 1)) 0)
       a!4
       (>= (+ a!5 (* it540 (- 1))) 0)
       (>= (+ it1162 (- 1)) 0)
       (>= (+ it1069 (- 3)) 0)
       (>= (+ a!5 (- 1)) 0)
       (>= (+ a!3 2) 0)
       a!7
       (>= (+ it1072 (- 1)) 0)
       a!8
       (>= (+ a!2 (* it540 (- 1))) 0)
       (>= (+ it1071 (- 1)) 0)
       (>= (+ (* it1071 (- 2))
              (* it706 (- 1))
              (* it540 it716)
              it1072
              (* it706 it716)
              (* it540 (- 1)))
           0)
       (>= (+ a!9 (- 1)) 0)
       (>= (+ a!9 (* it540 (- 1))) 0)
       (= (+ it1074 (* it1071 (- 2))) 0)
       (>= a!2 0)
       (>= a!11 0)
       a!12
       (>= (+ a!13 (- 2)) 0)
       a!15
       (= (+ it1071 (- 1)) 0)
       a!16
       (>= (+ a!3 1) 0)
       (>= (+ a!2 1) 0)
       (>= (+ a!17 (- 2)) 0)
       (>= (+ a!6
              (* it706 (- 1))
              (* it540 it716)
              it1072
              (* it706 it716)
              (* it540 (- 1))
              (- 1))
           0)
       (>= (+ (* it1069 (- 1)) 3) 0)
       (>= (+ a!14 (* it540 (- 1))) 0)
       (>= (+ it1072 (- 3)) 0)
       (>= (+ a!18 (- 2)) 0)
       (>= a!17 0)
       (>= (+ (* it706 (- 1))
              (* it540 it716)
              it1072
              (* it706 it716)
              (* it540 (- 1))
              (- 1))
           0)
       (>= a!5 0)
       (>= (+ a!18 (- 1)) 0)
       (>= (+ a!13 (- 1)) 0)
       a!19
       a!20
       (>= (+ it706 (- 1)) 0)
       a!21
       a!22
       (>= (+ it716 (- 1)) 0)
       (>= (+ a!14 (- 1)) 0)
       a!23
       (>= (+ a!3 (- 1)) 0)
       a!24
       a!25
       a!26
       a!27
       (>= (+ (* it1074 (- 1)) it1072) 0)
       (>= (+ it1072 (- 2)) 0)
       (>= (+ a!3 (* it540 (- 1))) 0)
       (>= (+ a!2 2) 0)
       (>= (+ (* it1071 (- 1)) 1) 0)
       a!28
       (>= a!3 0)
       (>= (+ a!11 (* it540 (- 1))) 0)
       (>= (+ a!17 (- 1)) 0))))))
(check-sat)
